10000000
14
100000 100000 100000 100000 100000 100000 100000 100000 100000 100000 100000 100000 100000 100000
1
40 50
45 68
45 70
42 66
42 68
42 65
40 69
40 66
38 68
38 70
35 66
35 69
25 85
22 75
22 85